
Gurobi 9.1.2 (linux64) logging started Wed Nov 24 10:26:29 2021

Changed value of parameter LogFile to lemke_square_v-(5, 5).log-s20-l10.log
   Prev:   Default: 
Changed value of parameter Threads to 32
   Prev: 0  Min: 0  Max: 1024  Default: 0
Changed value of parameter TimeLimit to 3600.0
   Prev: inf  Min: 0.0  Max: inf  Default: inf
Changed value of parameter MIPGap to 0.4
   Prev: 0.0001  Min: 0.0  Max: inf  Default: 0.0001
Warning: variable name "X[(7, 4),(7, 3)]" has a space
Warning: constraint name "flow-constr-t0-v(3, 0)" has a space
Warning: to let Gurobi read it back, use rlp format
Gurobi Optimizer version 9.1.2 build v9.1.2rc0 (linux64)
Thread count: 16 physical cores, 32 logical processors, using up to 32 threads
Optimize a model with 6033 rows, 5440 columns and 20730 nonzeros
Model fingerprint: 0xbf24d96c
Variable types: 0 continuous, 5440 integer (4800 binary)
Coefficient statistics:
  Matrix range     [1e+00, 1e+03]
  Objective range  [1e-01, 1e-01]
  Bounds range     [1e+00, 5e+02]
  RHS range        [1e+00, 1e+03]
Presolve removed 498 rows and 520 columns
Presolve time: 0.03s
Presolved: 5535 rows, 4920 columns, 18420 nonzeros
Variable types: 0 continuous, 4920 integer (4290 binary)

Root relaxation: objective 6.300000e+01, 120 iterations, 0.00 seconds

    Nodes    |    Current Node    |     Objective Bounds      |     Work
 Expl Unexpl |  Obj  Depth IntInf | Incumbent    BestBd   Gap | It/Node Time

     0     0   63.00000    0   50          -   63.00000      -     -    0s
     0     0   63.00000    0   74          -   63.00000      -     -    0s
     0     0   63.00000    0   74          -   63.00000      -     -    0s
     0     0   63.00000    0   52          -   63.00000      -     -    0s
     0     0   63.00000    0   62          -   63.00000      -     -    0s
     0     0   63.00000    0   46          -   63.00000      -     -    0s
H    0     0                    3193.0000000   63.00000  98.0%     -    0s
     0     0   63.00000    0   44 3193.00000   63.00000  98.0%     -    0s
H    0     0                     151.6000000   63.00000  58.4%     -    0s
     0     2   63.00000    0   44  151.60000   63.00000  58.4%     -    0s
H   32    62                     147.5000000   63.00000  57.3%  58.4    1s
H   33    62                     147.1000000   63.00000  57.2%  59.0    1s
H   35    62                     146.7000000   63.00000  57.1%  59.6    1s
H   36    62                     146.5000000   63.00000  57.0%  60.1    1s
H   38    62                     132.7000000   63.00000  52.5%  60.3    1s

Cutting planes:
  Gomory: 3
  Cover: 136
  Implied bound: 184
  Clique: 12
  MIR: 26
  Flow cover: 14
  RLT: 7
  Relax-and-lift: 40

Explored 127 nodes (9104 simplex iterations) in 2.09 seconds
Thread count was 32 (of 32 available processors)

Solution count 7: 132.7 146.5 146.7 ... 3193

Solve interrupted
Best objective 1.327000000000e+02, best bound 6.300000000000e+01, gap 52.5245%

Gurobi 9.1.2 (linux64) logging started Wed Nov 24 10:31:30 2021

Changed value of parameter LogFile to lemke_square_v-(5, 5).log-s20-l10.log
   Prev:   Default: 
Changed value of parameter Threads to 32
   Prev: 0  Min: 0  Max: 1024  Default: 0
Changed value of parameter TimeLimit to 3600.0
   Prev: inf  Min: 0.0  Max: inf  Default: inf
Changed value of parameter MIPGap to 0.4
   Prev: 0.0001  Min: 0.0  Max: inf  Default: 0.0001
Warning: variable name "X[(7, 4),(7, 3)]" has a space
Warning: constraint name "flow-constr-t0-v(3, 0)" has a space
Warning: to let Gurobi read it back, use rlp format
Gurobi Optimizer version 9.1.2 build v9.1.2rc0 (linux64)
Thread count: 16 physical cores, 32 logical processors, using up to 32 threads
Optimize a model with 6033 rows, 5440 columns and 20730 nonzeros
Model fingerprint: 0xbf24d96c
Variable types: 0 continuous, 5440 integer (4800 binary)
Coefficient statistics:
  Matrix range     [1e+00, 1e+03]
  Objective range  [1e-01, 1e-01]
  Bounds range     [1e+00, 5e+02]
  RHS range        [1e+00, 1e+03]
Presolve removed 498 rows and 520 columns
Presolve time: 0.04s
Presolved: 5535 rows, 4920 columns, 18420 nonzeros
Variable types: 0 continuous, 4920 integer (4290 binary)

Root relaxation: objective 6.300000e+01, 120 iterations, 0.00 seconds

    Nodes    |    Current Node    |     Objective Bounds      |     Work
 Expl Unexpl |  Obj  Depth IntInf | Incumbent    BestBd   Gap | It/Node Time

     0     0   63.00000    0   50          -   63.00000      -     -    0s
     0     0   63.00000    0   74          -   63.00000      -     -    0s
     0     0   63.00000    0   74          -   63.00000      -     -    0s
     0     0   63.00000    0   52          -   63.00000      -     -    0s
     0     0   63.00000    0   62          -   63.00000      -     -    0s
     0     0   63.00000    0   46          -   63.00000      -     -    0s
H    0     0                    3193.0000000   63.00000  98.0%     -    0s
     0     0   63.00000    0   44 3193.00000   63.00000  98.0%     -    0s
H    0     0                     151.6000000   63.00000  58.4%     -    0s
     0     2   63.00000    0   44  151.60000   63.00000  58.4%     -    0s
H   32    62                     147.5000000   63.00000  57.3%  58.4    1s
H   33    62                     147.1000000   63.00000  57.2%  59.0    1s
H   35    62                     146.7000000   63.00000  57.1%  59.6    1s
H   36    62                     146.5000000   63.00000  57.0%  60.1    1s
H   38    62                     132.7000000   63.00000  52.5%  60.3    1s
H   95   126                     129.5000000   63.00000  51.4%  63.9    3s
H   96   126                     123.6000000   63.00000  49.0%  63.3    3s
H 6791  8559                     120.3000000   63.00000  47.6%  11.9    5s
H 6926  8512                     118.5000000   63.00000  46.8%  12.2    5s
H 6948  8508                     118.2000000   63.00000  46.7%  12.2    5s
H 7020  8508                     117.8000000   63.00000  46.5%  12.1    5s
H 8094  8497                     117.1000000   63.00000  46.2%  11.1    5s
H11287 10487                     112.5000000   63.00000  44.0%  10.3    6s
H11347 10398                     109.6000000   63.00000  42.5%  10.3    6s
H14456 12129                     109.4000000   63.00000  42.4%  10.1    8s
H14457 11523                     106.9000000   63.00000  41.1%  10.1    8s
H14464 10952                     104.1000000   63.00000  39.5%  10.1    9s

Cutting planes:
  Gomory: 27
  Cover: 142
  Implied bound: 149
  Projected implied bound: 21
  Clique: 22
  MIR: 57
  StrongCG: 1
  Flow cover: 93
  GUB cover: 4
  Zero half: 2
  RLT: 39
  Relax-and-lift: 65

Explored 14464 nodes (154880 simplex iterations) in 9.26 seconds
Thread count was 32 (of 32 available processors)

Solution count 10: 104.1 106.9 109.4 ... 120.3

Optimal solution found (tolerance 4.00e-01)
Best objective 1.041000000000e+02, best bound 6.300000000000e+01, gap 39.4813%

Gurobi 9.1.2 (linux64) logging started Wed Nov 24 11:38:46 2021

Changed value of parameter LogFile to lemke_square_v-(5, 5).log-s20-l10.log
   Prev:   Default: 
Changed value of parameter Threads to 32
   Prev: 0  Min: 0  Max: 1024  Default: 0
Changed value of parameter TimeLimit to 3600.0
   Prev: inf  Min: 0.0  Max: inf  Default: inf
Changed value of parameter MIPGap to 0.34
   Prev: 0.0001  Min: 0.0  Max: inf  Default: 0.0001
Warning: variable name "X[(7, 4),(7, 3)]" has a space
Warning: constraint name "flow-constr-t0-v(3, 0)" has a space
Warning: to let Gurobi read it back, use rlp format
Gurobi Optimizer version 9.1.2 build v9.1.2rc0 (linux64)
Thread count: 16 physical cores, 32 logical processors, using up to 32 threads
Optimize a model with 6033 rows, 5440 columns and 20730 nonzeros
Model fingerprint: 0xbf24d96c
Variable types: 0 continuous, 5440 integer (4800 binary)
Coefficient statistics:
  Matrix range     [1e+00, 1e+03]
  Objective range  [1e-01, 1e-01]
  Bounds range     [1e+00, 5e+02]
  RHS range        [1e+00, 1e+03]
Presolve removed 498 rows and 520 columns
Presolve time: 0.04s
Presolved: 5535 rows, 4920 columns, 18420 nonzeros
Variable types: 0 continuous, 4920 integer (4290 binary)

Root relaxation: objective 6.300000e+01, 120 iterations, 0.00 seconds

    Nodes    |    Current Node    |     Objective Bounds      |     Work
 Expl Unexpl |  Obj  Depth IntInf | Incumbent    BestBd   Gap | It/Node Time

     0     0   63.00000    0   50          -   63.00000      -     -    0s
     0     0   63.00000    0   74          -   63.00000      -     -    0s
     0     0   63.00000    0   74          -   63.00000      -     -    0s
     0     0   63.00000    0   52          -   63.00000      -     -    0s
     0     0   63.00000    0   62          -   63.00000      -     -    0s
     0     0   63.00000    0   46          -   63.00000      -     -    0s
H    0     0                    3193.0000000   63.00000  98.0%     -    0s
     0     0   63.00000    0   44 3193.00000   63.00000  98.0%     -    0s
H    0     0                     151.6000000   63.00000  58.4%     -    0s
     0     2   63.00000    0   44  151.60000   63.00000  58.4%     -    0s
H   32    62                     147.5000000   63.00000  57.3%  58.4    1s
H   33    62                     147.1000000   63.00000  57.2%  59.0    1s
H   35    62                     146.7000000   63.00000  57.1%  59.6    1s
H   36    62                     146.5000000   63.00000  57.0%  60.1    1s
H   38    62                     132.7000000   63.00000  52.5%  60.3    1s
H   95   126                     129.5000000   63.00000  51.4%  63.9    3s
H   96   126                     123.6000000   63.00000  49.0%  63.3    3s
H 6791  8559                     120.3000000   63.00000  47.6%  11.9    5s
H 6926  8512                     118.5000000   63.00000  46.8%  12.2    5s
H 6948  8508                     118.2000000   63.00000  46.7%  12.2    5s
H 7020  8508                     117.8000000   63.00000  46.5%  12.1    5s
H 8094  8497                     117.1000000   63.00000  46.2%  11.1    5s
H11287 10487                     112.5000000   63.00000  44.0%  10.3    6s
H11347 10398                     109.6000000   63.00000  42.5%  10.3    6s
H14456 12129                     109.4000000   63.00000  42.4%  10.1    7s

Cutting planes:
  Cover: 26
  Implied bound: 26
  Projected implied bound: 3
  Clique: 1
  MIR: 9
  Flow cover: 12
  RLT: 5
  Relax-and-lift: 4

Explored 14456 nodes (150125 simplex iterations) in 7.97 seconds
Thread count was 32 (of 32 available processors)

Solution count 10: 109.4 109.6 112.5 ... 129.5

Solve interrupted
Best objective 1.094000000000e+02, best bound 6.300000000000e+01, gap 42.4132%

Gurobi 9.1.2 (linux64) logging started Wed Nov 24 11:39:54 2021

Changed value of parameter LogFile to lemke_square_v-(5, 5).log-s20-l10.log
   Prev:   Default: 
Changed value of parameter Threads to 32
   Prev: 0  Min: 0  Max: 1024  Default: 0
Changed value of parameter TimeLimit to 3600.0
   Prev: inf  Min: 0.0  Max: inf  Default: inf
Changed value of parameter MIPGap to 0.3
   Prev: 0.0001  Min: 0.0  Max: inf  Default: 0.0001
Warning: variable name "X[(7, 4),(7, 3)]" has a space
Warning: constraint name "flow-constr-t0-v(3, 0)" has a space
Warning: to let Gurobi read it back, use rlp format
Gurobi Optimizer version 9.1.2 build v9.1.2rc0 (linux64)
Thread count: 16 physical cores, 32 logical processors, using up to 32 threads
Optimize a model with 6033 rows, 5440 columns and 20730 nonzeros
Model fingerprint: 0xbf24d96c
Variable types: 0 continuous, 5440 integer (4800 binary)
Coefficient statistics:
  Matrix range     [1e+00, 1e+03]
  Objective range  [1e-01, 1e-01]
  Bounds range     [1e+00, 5e+02]
  RHS range        [1e+00, 1e+03]
Presolve removed 498 rows and 520 columns
Presolve time: 0.04s
Presolved: 5535 rows, 4920 columns, 18420 nonzeros
Variable types: 0 continuous, 4920 integer (4290 binary)

Root relaxation: objective 6.300000e+01, 120 iterations, 0.00 seconds

    Nodes    |    Current Node    |     Objective Bounds      |     Work
 Expl Unexpl |  Obj  Depth IntInf | Incumbent    BestBd   Gap | It/Node Time

     0     0   63.00000    0   50          -   63.00000      -     -    0s
     0     0   63.00000    0   74          -   63.00000      -     -    0s
     0     0   63.00000    0   74          -   63.00000      -     -    0s
     0     0   63.00000    0   52          -   63.00000      -     -    0s
     0     0   63.00000    0   62          -   63.00000      -     -    0s
     0     0   63.00000    0   46          -   63.00000      -     -    0s
H    0     0                    3193.0000000   63.00000  98.0%     -    0s
     0     0   63.00000    0   44 3193.00000   63.00000  98.0%     -    0s
H    0     0                     151.6000000   63.00000  58.4%     -    0s
     0     2   63.00000    0   44  151.60000   63.00000  58.4%     -    0s
H   32    62                     147.5000000   63.00000  57.3%  58.4    1s
H   33    62                     147.1000000   63.00000  57.2%  59.0    1s
H   35    62                     146.7000000   63.00000  57.1%  59.6    1s
H   36    62                     146.5000000   63.00000  57.0%  60.1    1s
H   38    62                     132.7000000   63.00000  52.5%  60.3    1s
H   95   126                     129.5000000   63.00000  51.4%  63.9    3s
H   96   126                     123.6000000   63.00000  49.0%  63.3    3s
H 6791  8559                     120.3000000   63.00000  47.6%  11.9    5s
H 6926  8512                     118.5000000   63.00000  46.8%  12.2    5s
H 6948  8508                     118.2000000   63.00000  46.7%  12.2    5s
H 7020  8508                     117.8000000   63.00000  46.5%  12.1    5s
H 8094  8497                     117.1000000   63.00000  46.2%  11.1    5s
H11287 10487                     112.5000000   63.00000  44.0%  10.3    6s
H11347 10398                     109.6000000   63.00000  42.5%  10.3    6s
H14456 12129                     109.4000000   63.00000  42.4%  10.1    7s
H14457 11523                     106.9000000   63.00000  41.1%  10.1    7s
H14466 10953                     105.4000000   63.00000  40.2%  10.1    9s
H14466 10405                     101.9000000   63.00000  38.2%  10.1    9s
H14466  9884                     101.3000000   63.00000  37.8%  10.1    9s
 14470  9887   64.80000  117   70  101.30000   63.00000  37.8%  10.1   10s
H14472  9397                      99.9000000   63.00000  36.9%  10.8   10s
H14502  8977                      99.7000000   63.00000  36.8%  10.8   12s
H14503  8530                      96.4000000   63.00000  34.6%  10.8   12s
H14571  8120                      91.9000000   63.00000  31.4%  10.8   14s
 14635  8164   63.00000   21   72   91.90000   63.00000  31.4%  10.8   15s
H22541 13083                      90.9000000   63.00000  30.7%   8.4   17s
H22595 12664                      90.1000000   63.00000  30.1%   8.3   17s
H23091 12133                      90.0000000   63.00000  30.0%   8.3   17s
H23327 11590                      89.3000000   63.00000  29.5%   8.2   17s
H24367 10756                      88.7000000   63.00000  29.0%   8.0   17s

Cutting planes:
  Gomory: 7
  Cover: 144
  Implied bound: 160
  Projected implied bound: 8
  Clique: 33
  MIR: 27
  Flow cover: 38
  GUB cover: 3
  Zero half: 1
  RLT: 17
  Relax-and-lift: 48

Explored 24412 nodes (198890 simplex iterations) in 17.88 seconds
Thread count was 32 (of 32 available processors)

Solution count 10: 88.7 89.3 90 ... 101.3

Optimal solution found (tolerance 3.00e-01)
Best objective 8.870000000000e+01, best bound 6.300000000000e+01, gap 28.9741%
